n_res = 4;
rc = [ 22, 24, 28, 29 ];
n_tasks = 30;
d = [ 2, 2, 10, 6, 5, 5, 8, 5, 10, 3, 8, 3, 9, 1, 1, 1, 3, 2, 6, 10, 10, 2, 7, 3, 9, 3, 2, 4, 6, 6 ];
rr = [| 22, 22, 22, 22, 22, 22, 22, 22, 22, 22, 22, 22, 22, 22, 22, 22, 22, 22, 22, 22, 22, 22, 22, 22, 22, 22, 22, 22, 22, 22
      | 24, 24, 24, 24, 24, 24, 24, 24, 24, 24, 24, 24, 24, 24, 24, 24, 24, 24, 24, 24, 24, 24, 24, 24, 24, 24, 24, 24, 24, 24
      | 28, 28, 28, 28, 28, 28, 28, 28, 28, 28, 28, 28, 28, 28, 28, 28, 28, 28, 28, 28, 28, 28, 28, 28, 28, 28, 28, 28, 28, 28
      | 29, 29, 29, 29, 29, 29, 29, 29, 29, 29, 29, 29, 29, 29, 29, 29, 29, 29, 29, 29, 29, 29, 29, 29, 29, 29, 29, 29, 29, 29|];
suc = [ { 4, 8 },
       { 5, 6, 7 },
       { 9, 22, 27 },
       { 13, 15, 19 },
       { 16 },
       { 10 },
       { 30 },
       { 11, 12, 17 },
       { 15, 28 },
       { 17, 21 },
       { 18 },
       { 14, 26 },
       { 30 },
       { 24 },
       { 18, 20, 23 },
       { 19 },
       { 24 },
       { 26 },
       { 29 },
       { 25 },
       { 24, 28 },
       { 25 },
       { 29 },
       { 29 },
       { 26 },
       { 30 },
       { 28 },
       {  },
       {  },
       {  } ];
